p tw 242 13310 1 
0 2 
0 3 
0 4 
0 5 
0 6 
0 7 
0 8 
0 9 
0 10 
0 11 
0 12 
0 13 
0 14 
0 15 
0 16 
0 17 
0 18 
0 19 
0 20 
0 21 
0 22 
0 23 
0 24 
0 25 
0 26 
0 27 
0 28 
0 29 
0 30 
0 31 
0 32 
0 33 
0 34 
0 35 
0 36 
0 37 
0 38 
0 39 
0 40 
0 41 
0 42 
0 43 
0 44 
0 45 
0 46 
0 47 
0 48 
0 49 
0 50 
0 51 
0 52 
0 53 
0 54 
0 55 
0 56 
0 57 
0 58 
0 59 
0 60 
0 61 
0 62 
0 63 
0 64 
0 65 
0 66 
0 67 
0 68 
0 69 
0 70 
0 71 
0 72 
0 73 
0 74 
0 75 
0 76 
0 77 
0 78 
0 79 
0 80 
0 81 
0 82 
0 83 
0 84 
0 85 
0 86 
0 87 
0 88 
0 89 
0 90 
0 91 
0 92 
0 93 
0 94 
0 95 
0 96 
0 97 
0 98 
0 99 
0 100 
0 101 
0 102 
0 103 
0 104 
0 105 
0 106 
0 107 
0 108 
0 109 
0 110 
0 111 
0 112 
0 113 
0 114 
0 115 
0 116 
0 117 
0 118 
0 119 
0 120 
0 121 
1 122 
1 123 
1 124 
1 125 
1 126 
1 127 
1 128 
1 129 
1 130 
1 131 
1 132 
1 133 
1 134 
1 135 
1 136 
1 137 
1 138 
1 139 
1 140 
1 141 
1 142 
1 143 
1 144 
1 145 
1 146 
1 147 
1 148 
1 149 
1 150 
1 151 
1 152 
1 153 
1 154 
1 155 
1 156 
1 157 
1 158 
1 159 
1 160 
1 161 
1 162 
1 163 
1 164 
1 165 
1 166 
1 167 
1 168 
1 169 
1 170 
1 171 
1 172 
1 173 
1 174 
1 175 
1 176 
1 177 
1 178 
1 179 
1 180 
1 181 
1 182 
1 183 
1 184 
1 185 
1 186 
1 187 
1 188 
1 189 
1 190 
1 191 
1 192 
1 193 
1 194 
1 195 
1 196 
1 197 
1 198 
1 199 
1 200 
1 201 
1 202 
1 203 
1 204 
1 205 
1 206 
1 207 
1 208 
1 209 
1 210 
1 211 
1 212 
1 213 
1 214 
1 215 
1 216 
1 217 
1 218 
1 219 
1 220 
1 221 
1 222 
1 223 
1 224 
1 225 
1 226 
1 227 
1 228 
1 229 
1 230 
1 231 
1 232 
1 233 
1 234 
1 235 
1 236 
1 237 
1 238 
1 239 
1 240 
1 241 
1 242 
1 148 
1 154 
1 158 
1 172 
1 173 
1 184 
1 189 
1 193 
1 197 
1 200 
1 224 
2 129 
2 141 
2 165 
2 175 
2 190 
2 191 
2 203 
2 210 
2 219 
2 231 
2 238 
3 148 
3 154 
3 158 
3 172 
3 184 
3 189 
3 193 
3 194 
3 197 
3 200 
3 242 
4 134 
4 145 
4 152 
4 157 
4 159 
4 167 
4 195 
4 202 
4 207 
4 220 
4 233 
5 123 
5 124 
5 140 
5 149 
5 151 
5 161 
5 162 
5 166 
5 176 
5 215 
5 225 
6 135 
6 144 
6 156 
6 164 
6 186 
6 188 
6 192 
6 198 
6 204 
6 222 
6 237 
7 130 
7 131 
7 136 
7 163 
7 199 
7 206 
7 208 
7 209 
7 218 
7 228 
7 232 
8 144 
8 150 
8 164 
8 181 
8 186 
8 188 
8 192 
8 204 
8 222 
8 237 
8 240 
9 146 
9 160 
9 182 
9 190 
9 196 
9 219 
9 223 
9 230 
9 234 
9 236 
9 238 
10 139 
10 155 
10 157 
10 159 
10 167 
10 202 
10 207 
10 216 
10 220 
10 229 
10 235 
11 155 
11 157 
11 159 
11 167 
11 202 
11 207 
11 216 
11 220 
11 229 
11 233 
11 235 
12 127 
12 133 
12 158 
12 169 
12 177 
12 183 
12 193 
12 194 
12 217 
12 221 
12 242 
13 130 
13 131 
13 136 
13 163 
13 199 
13 206 
13 208 
13 209 
13 218 
13 228 
13 232 
14 145 
14 155 
14 167 
14 168 
14 170 
14 202 
14 211 
14 216 
14 220 
14 233 
14 235 
15 134 
15 139 
15 145 
15 147 
15 152 
15 168 
15 170 
15 174 
15 195 
15 211 
15 239 
16 133 
16 148 
16 173 
16 183 
16 184 
16 185 
16 193 
16 194 
16 197 
16 217 
16 221 
17 122 
17 124 
17 128 
17 149 
17 162 
17 166 
17 180 
17 187 
17 213 
17 215 
17 227 
18 132 
18 138 
18 143 
18 150 
18 164 
18 171 
18 181 
18 188 
18 192 
18 205 
18 240 
19 122 
19 123 
19 137 
19 140 
19 149 
19 151 
19 162 
19 166 
19 176 
19 187 
19 215 
20 126 
20 148 
20 154 
20 172 
20 173 
20 184 
20 185 
20 189 
20 197 
20 200 
20 224 
21 132 
21 142 
21 143 
21 156 
21 171 
21 181 
21 186 
21 188 
21 204 
21 240 
21 241 
22 134 
22 145 
22 157 
22 159 
22 167 
22 174 
22 195 
22 202 
22 207 
22 216 
22 233 
23 132 
23 135 
23 138 
23 142 
23 156 
23 171 
23 186 
23 192 
23 214 
23 237 
23 240 
24 130 
24 131 
24 136 
24 163 
24 199 
24 206 
24 208 
24 209 
24 218 
24 228 
24 232 
25 126 
25 133 
25 154 
25 177 
25 184 
25 185 
25 194 
25 197 
25 200 
25 217 
25 242 
26 122 
26 124 
26 128 
26 140 
26 149 
26 162 
26 166 
26 176 
26 180 
26 215 
26 225 
27 153 
27 160 
27 165 
27 175 
27 190 
27 196 
27 203 
27 210 
27 226 
27 230 
27 236 
28 139 
28 145 
28 152 
28 155 
28 157 
28 167 
28 170 
28 174 
28 195 
28 211 
28 239 
29 147 
29 152 
29 155 
29 157 
29 159 
29 174 
29 195 
29 211 
29 229 
29 233 
29 239 
30 141 
30 153 
30 182 
30 190 
30 191 
30 203 
30 210 
30 219 
30 231 
30 234 
30 236 
31 132 
31 135 
31 138 
31 142 
31 143 
31 156 
31 171 
31 186 
31 192 
31 214 
31 240 
32 139 
32 145 
32 147 
32 152 
32 155 
32 157 
32 159 
32 174 
32 195 
32 202 
32 211 
33 134 
33 139 
33 147 
33 152 
33 157 
33 159 
33 174 
33 195 
33 207 
33 229 
33 239 
34 135 
34 142 
34 144 
34 156 
34 186 
34 198 
34 204 
34 214 
34 222 
34 237 
34 241 
35 132 
35 144 
35 156 
35 164 
35 181 
35 188 
35 198 
35 204 
35 205 
35 237 
35 241 
36 125 
36 129 
36 141 
36 146 
36 182 
36 191 
36 219 
36 223 
36 231 
36 234 
36 238 
37 126 
37 127 
37 133 
37 172 
37 173 
37 177 
37 183 
37 185 
37 194 
37 197 
37 221 
38 134 
38 145 
38 147 
38 152 
38 168 
38 170 
38 174 
38 195 
38 211 
38 233 
38 239 
39 130 
39 131 
39 136 
39 163 
39 199 
39 206 
39 208 
39 209 
39 218 
39 228 
39 232 
40 123 
40 137 
40 151 
40 161 
40 178 
40 179 
40 187 
40 201 
40 212 
40 213 
40 227 
41 148 
41 154 
41 158 
41 169 
41 184 
41 189 
41 193 
41 200 
41 217 
41 224 
41 242 
42 124 
42 128 
42 161 
42 178 
42 179 
42 180 
42 201 
42 212 
42 213 
42 225 
42 227 
43 126 
43 127 
43 133 
43 169 
43 173 
43 177 
43 183 
43 185 
43 217 
43 221 
43 224 
44 122 
44 128 
44 137 
44 151 
44 176 
44 178 
44 201 
44 212 
44 215 
44 225 
44 227 
45 129 
45 141 
45 146 
45 153 
45 182 
45 190 
45 196 
45 223 
45 226 
45 230 
45 234 
46 130 
46 131 
46 136 
46 163 
46 199 
46 206 
46 208 
46 209 
46 218 
46 228 
46 232 
47 139 
47 147 
47 155 
47 168 
47 170 
47 174 
47 211 
47 216 
47 229 
47 235 
47 239 
48 122 
48 123 
48 124 
48 166 
48 178 
48 179 
48 180 
48 212 
48 213 
48 225 
48 227 
49 125 
49 141 
49 153 
49 182 
49 191 
49 203 
49 210 
49 219 
49 231 
49 234 
49 236 
50 139 
50 147 
50 152 
50 155 
50 168 
50 170 
50 211 
50 220 
50 229 
50 235 
50 239 
51 139 
51 145 
51 147 
51 155 
51 168 
51 170 
51 211 
51 216 
51 220 
51 235 
51 239 
52 154 
52 158 
52 172 
52 173 
52 177 
52 184 
52 189 
52 193 
52 197 
52 200 
52 224 
53 126 
53 127 
53 148 
53 154 
53 158 
53 172 
53 189 
53 194 
53 197 
53 221 
53 242 
54 130 
54 131 
54 136 
54 163 
54 199 
54 206 
54 208 
54 209 
54 218 
54 228 
54 232 
55 135 
55 138 
55 142 
55 143 
55 150 
55 171 
55 186 
55 192 
55 214 
55 222 
55 240 
56 134 
56 145 
56 167 
56 168 
56 170 
56 202 
56 207 
56 216 
56 220 
56 233 
56 235 
57 134 
57 139 
57 145 
57 167 
57 168 
57 170 
57 202 
57 207 
57 216 
57 220 
57 235 
58 128 
58 137 
58 161 
58 178 
58 179 
58 180 
58 187 
58 201 
58 212 
58 213 
58 227 
59 127 
59 133 
59 148 
59 158 
59 169 
59 172 
59 173 
59 183 
59 193 
59 200 
59 224 
60 134 
60 152 
60 157 
60 159 
60 167 
60 174 
60 195 
60 202 
60 207 
60 229 
60 233 
61 122 
61 123 
61 124 
61 140 
61 149 
61 151 
61 162 
61 166 
61 176 
61 215 
61 225 
62 160 
62 165 
62 175 
62 190 
62 196 
62 203 
62 210 
62 226 
62 231 
62 236 
62 238 
63 155 
63 157 
63 167 
63 170 
63 174 
63 207 
63 216 
63 229 
63 233 
63 235 
63 239 
64 126 
64 127 
64 148 
64 154 
64 158 
64 169 
64 172 
64 189 
64 200 
64 224 
64 242 
65 127 
65 148 
65 158 
65 169 
65 172 
65 173 
65 183 
65 189 
65 193 
65 221 
65 224 
66 123 
66 137 
66 140 
66 151 
66 161 
66 176 
66 178 
66 179 
66 201 
66 212 
66 225 
67 130 
67 131 
67 136 
67 163 
67 199 
67 206 
67 208 
67 209 
67 218 
67 228 
67 232 
68 130 
68 131 
68 136 
68 163 
68 199 
68 206 
68 208 
68 209 
68 218 
68 228 
68 232 
69 128 
69 137 
69 140 
69 149 
69 161 
69 176 
69 180 
69 187 
69 201 
69 212 
69 215 
70 132 
70 135 
70 138 
70 142 
70 143 
70 156 
70 171 
70 198 
70 205 
70 214 
70 241 
71 130 
71 131 
71 136 
71 163 
71 199 
71 206 
71 208 
71 209 
71 218 
71 228 
71 232 
72 127 
72 133 
72 148 
72 158 
72 169 
72 172 
72 183 
72 193 
72 221 
72 224 
72 242 
73 143 
73 144 
73 150 
73 164 
73 181 
73 188 
73 198 
73 204 
73 205 
73 222 
73 241 
74 122 
74 123 
74 124 
74 140 
74 149 
74 162 
74 176 
74 179 
74 180 
74 201 
74 225 
75 122 
75 123 
75 124 
75 151 
75 162 
75 166 
75 178 
75 179 
75 213 
75 225 
75 227 
76 146 
76 160 
76 175 
76 190 
76 191 
76 223 
76 226 
76 230 
76 234 
76 236 
76 238 
77 126 
77 127 
77 133 
77 169 
77 177 
77 183 
77 185 
77 194 
77 217 
77 221 
77 242 
78 125 
78 141 
78 153 
78 175 
78 191 
78 203 
78 223 
78 226 
78 231 
78 234 
78 236 
79 128 
79 137 
79 140 
79 149 
79 151 
79 161 
79 162 
79 176 
79 187 
79 201 
79 215 
80 125 
80 129 
80 141 
80 146 
80 182 
80 191 
80 210 
80 219 
80 230 
80 234 
80 238 
81 146 
81 153 
81 160 
81 182 
81 190 
81 196 
81 223 
81 226 
81 230 
81 234 
81 236 
82 135 
82 143 
82 144 
82 156 
82 164 
82 186 
82 188 
82 192 
82 198 
82 204 
82 222 
83 133 
83 173 
83 177 
83 183 
83 184 
83 185 
83 193 
83 194 
83 197 
83 217 
83 221 
84 125 
84 146 
84 153 
84 160 
84 182 
84 196 
84 223 
84 226 
84 230 
84 234 
84 236 
85 129 
85 146 
85 160 
85 165 
85 182 
85 190 
85 196 
85 210 
85 219 
85 230 
85 238 
86 125 
86 129 
86 141 
86 153 
86 165 
86 175 
86 191 
86 203 
86 210 
86 226 
86 231 
87 135 
87 138 
87 144 
87 150 
87 164 
87 192 
87 198 
87 205 
87 214 
87 222 
87 237 
88 133 
88 169 
88 173 
88 177 
88 183 
88 184 
88 185 
88 193 
88 200 
88 217 
88 224 
89 125 
89 129 
89 141 
89 153 
89 165 
89 182 
89 196 
89 203 
89 210 
89 219 
89 231 
90 122 
90 123 
90 124 
90 140 
90 151 
90 166 
90 178 
90 179 
90 212 
90 213 
90 225 
91 125 
91 160 
91 165 
91 175 
91 191 
91 203 
91 210 
91 219 
91 231 
91 236 
91 238 
92 132 
92 135 
92 138 
92 143 
92 156 
92 164 
92 171 
92 192 
92 205 
92 214 
92 240 
93 134 
93 139 
93 145 
93 147 
93 152 
93 159 
93 168 
93 195 
93 202 
93 211 
93 220 
94 130 
94 131 
94 136 
94 163 
94 199 
94 206 
94 208 
94 209 
94 218 
94 228 
94 232 
95 128 
95 137 
95 151 
95 161 
95 176 
95 178 
95 201 
95 212 
95 215 
95 225 
95 227 
96 153 
96 160 
96 165 
96 175 
96 190 
96 196 
96 203 
96 223 
96 226 
96 231 
96 236 
97 135 
97 138 
97 150 
97 164 
97 171 
97 186 
97 192 
97 198 
97 214 
97 222 
97 237 
98 144 
98 150 
98 164 
98 181 
98 188 
98 198 
98 204 
98 205 
98 222 
98 237 
98 241 
99 139 
99 147 
99 152 
99 155 
99 157 
99 159 
99 174 
99 195 
99 211 
99 229 
99 239 
100 142 
100 144 
100 150 
100 181 
100 186 
100 188 
100 198 
100 204 
100 222 
100 237 
100 241 
101 134 
101 167 
101 168 
101 170 
101 207 
101 216 
101 220 
101 229 
101 233 
101 235 
101 239 
102 135 
102 138 
102 150 
102 164 
102 171 
102 188 
102 192 
102 198 
102 205 
102 222 
102 237 
103 126 
103 127 
103 133 
103 148 
103 169 
103 183 
103 185 
103 194 
103 217 
103 221 
103 242 
104 126 
104 154 
104 173 
104 177 
104 184 
104 185 
104 189 
104 194 
104 197 
104 200 
104 217 
105 128 
105 137 
105 149 
105 161 
105 162 
105 176 
105 180 
105 187 
105 201 
105 215 
105 227 
106 126 
106 127 
106 154 
106 158 
106 169 
106 172 
106 177 
106 189 
106 200 
106 224 
106 242 
107 125 
107 129 
107 141 
107 146 
107 153 
107 182 
107 191 
107 219 
107 223 
107 230 
107 234 
108 134 
108 147 
108 159 
108 168 
108 202 
108 207 
108 216 
108 220 
108 229 
108 233 
108 235 
109 132 
109 142 
109 143 
109 144 
109 156 
109 181 
109 188 
109 204 
109 205 
109 240 
109 241 
110 128 
110 137 
110 151 
110 161 
110 166 
110 178 
110 187 
110 212 
110 213 
110 215 
110 227 
111 125 
111 129 
111 141 
111 165 
111 175 
111 191 
111 203 
111 210 
111 219 
111 231 
111 238 
112 132 
112 142 
112 143 
112 144 
112 156 
112 181 
112 186 
112 204 
112 214 
112 240 
112 241 
113 123 
113 124 
113 140 
113 149 
113 161 
113 162 
113 166 
113 179 
113 180 
113 187 
113 213 
114 122 
114 128 
114 137 
114 178 
114 179 
114 180 
114 187 
114 201 
114 212 
114 213 
114 227 
115 129 
115 146 
115 160 
115 165 
115 175 
115 190 
115 196 
115 223 
115 226 
115 230 
115 238 
116 130 
116 131 
116 136 
116 163 
116 199 
116 206 
116 208 
116 209 
116 218 
116 228 
116 232 
117 125 
117 129 
117 146 
117 160 
117 165 
117 175 
117 196 
117 223 
117 226 
117 230 
117 238 
118 132 
118 138 
118 142 
118 150 
118 171 
118 181 
118 205 
118 214 
118 237 
118 240 
118 241 
119 132 
119 138 
119 142 
119 143 
119 150 
119 171 
119 181 
119 205 
119 214 
119 240 
119 241 
120 122 
120 123 
120 124 
120 140 
120 149 
120 162 
120 166 
120 179 
120 180 
120 187 
120 213 
121 126 
121 154 
121 177 
121 184 
121 185 
121 189 
121 194 
121 197 
121 217 
121 221 
121 242 
